Results/Experiment 1 Results/Existing Benchmark/RES_20/i-20-100-14.txt
solutions: 1 nodes: 1  modelTime: 139  solveTime: 16  totalTime: 158  modelSize: 7358  readTime: 3 matchingSize: 10
