Results/Experiment 2 Results/Existing Benchmark/i-20-100-14.lp
clingo version 5.4.0
Reading from tempSRTISolver.lp ...
Solving...
Answer: 1
matched(15,2) matched(6,3) matched(1,4) matched(17,5) matched(3,6) matched(9,7) matched(16,8) matched(7,9) matched(12,10) matched(13,11) matched(10,12) matched(11,13) matched(19,14) matched(2,15) matched(8,16) matched(5,17) matched(20,18) matched(14,19) matched(18,20) matched(4,1)
Optimization: 86
OPTIMUM FOUND

Models       : 1
  Optimum    : yes
Optimization : 86
Calls        : 1
Time         : 0.056s (Solving: 0.00s 1st Model: 0.00s Unsat: 0.00s)
CPU Time     : 0.056s
